units		real
atom_style	full
log		outputFiles/thermo.log   

read_data	inputFiles/binary.lmpsys
    
pair_style	lj/cut 10.0 
pair_coeff   	1 1 0.4 3.4  
pair_coeff   	2 2 0.4 3.4 
pair_coeff   	1 2 0.4 3.4 
#pair_coeff   	1 2 0.4 3.4 3.4

minimize 	1.0e-4 1.0e-6 1000 10000

fix 		fxnvt all nvt temp 300.0 300.0 100.0

thermo_style    multi
thermo          1000 

dump            dmpall	all dcd	100 outputFiles/binary.dcd   
run 		10000







