# careful abt zl zh in inputfile 

units		real
atom_style	full

read_data	inputFiles/waterCnt.lmpsys
group 		cnt   type 1 
group 		water type 2 3 
    
pair_style	hybrid lj/cut/coul/long 10.0 10.0   
bond_style   	harmonic
angle_style  	harmonic
kspace_style 	pppm 0.0001
pair_modify  	mix arithmetic shift yes

bond_coeff   	1 1000.0 1.0 
angle_coeff  	1 1000.0 109.47

pair_coeff   	1 1 lj/cut/coul/long 0.05564 3.4	# c
pair_coeff   	2 2 lj/cut/coul/long 0.0     2.058	# h
pair_coeff      3 3 lj/cut/coul/long 0.15535 3.166      # o
pair_coeff   	1 3 lj/cut/coul/long 0.09369 3.19  	# werder carbon-oxygen

timestep	1.0
neighbor	2.0 bin
neigh_modify    every 1 delay 0 check yes
neigh_modify    exclude group cnt cnt 

fix             fxcnt cnt setforce 0.0 0.0 0.0
minimize 	1.0e-4 1.0e-6 1000 10000

fix 		fxshk water shake 0.0001 20 0 b 1 a 1
fix 		fxnvt water nvt temp 300.0 300.0 100.0

thermo_style    custom	step temp pe ke etotal
thermo          100  

dump            dmpall  all dcd 100 outputFiles/waterCnt.dcd
run 		10000








