units           real
atom_style      full
log             OutputFiles/thermo.log

read_data       InputFiles/buckyballs.lmpsys
group           prot type 1
group           water type 2 3

pair_style      lj/charmm/coul/long 8.0 10.0
bond_style      harmonic
angle_style     harmonic
special_bonds   charmm
kspace_style    pppm 0.0001
pair_modify     mix arithmetic shift yes

bond_coeff      1 1000.0 1.0
angle_coeff     1 1000.0 109.47
pair_coeff      1 1 0.05564 3.4     # c
pair_coeff      2 2 0.15535 3.166   # o
pair_coeff      3 3 0.0     2.058   # h
pair_coeff      1 2 0.09369 3.19    # werder carbon-oxygen

timestep        2.0
neighbor        2.0 bin
neigh_modify    every 1 delay 0 check yes
neigh_modify    exclude group prot prot


fix             fxcnt prot setforce 0.0 0.0 0.0
minimize        1.0e-4 1.0e-6 1000 10000
reset_timestep  0
unfix		fxcnt

velocity        all create 298.0 1234567

fix             fxshk water shake 0.0001 20 0 b 1 a 1
fix             fxnvt water nvt temp 298.0 298.0 100.0 
fix             fxprot prot rigid/nvt molecule temp 298.0 298.0 100.0

compute         wTemp water temp
compute         wPe water group/group water kspace yes
thermo_style    custom step temp pe ke etotal c_wTemp c_wPe
thermo          1000

dump            dmpall all dcd 100 OutputFiles/buckyballs.dcd
run             1000000
