units		real
atom_style	full
log		outputFiles/thermo.log   

read_data	inputFiles/binary.lmpsys
    
pair_style	lj/cut 10.0 
pair_coeff   	1 1 0.4 3.4 10.0 
pair_coeff   	2 2 0.4 3.4 10.0
pair_coeff   	1 2 0.4 3.4 3.4

timestep	1.0
neighbor	2.0 bin
neigh_modify	every 10 delay 0 check yes 

minimize 	1.0e-4 1.0e-6 1000 10000
group           fixed type 1
group           moved type 2

velocity       moved create 300.0 1234567

fix             1 fixed setforce 0.0 0.0 0.0
fix 		fxnvt all nvt temp 300.0 300.0 100.0

thermo_style    custom step temp pe ke etotal press
thermo          1000  

dump            dmpall	all dcd	100 outputFiles/binary.dcd   
run 		10000







