units		real
atom_style	full
log		outputFiles/thermo.log   

read_data	inputFiles/atomic.lmpsys
    
pair_style	lj/cut 10.0 
pair_coeff   	1 1 0.4 3.4 

minimize 	1.0e-4 1.0e-6 1000 10000

fix 		fxnvt all nvt temp 300.0 300.0 100.0

thermo_style    multi
thermo          1000 

#run 		10000
dump            dmpall	all dcd	100 outputFiles/atomic.dcd   
run 		10000







