units		real
atom_style	full

read_data	InputFiles/216.lmpsys
    
pair_style	lj/cut/coul/long 10.0 10.0 
bond_style   	harmonic
angle_style  	harmonic
kspace_style 	pppm 0.0001
pair_modify  	mix arithmetic shift yes

bond_coeff   	1 1000.0 1.0 
angle_coeff  	1 1000.0 109.47
pair_coeff   	1 1 0.0 2.058	        # h
pair_coeff   	2 2 0.15535 3.166  	# o 

timestep	1.0
neighbor	2.0 bin
neigh_modify	every 10 delay 0 check yes 

minimize 	1.0e-4 1.0e-6 1000 10000

fix 		fxshk all shake 0.0001 20 0 b 1 a 1
fix 		fxnvt all nvt temp 300.0 300.0 100.0

thermo_style    custom step temp pe etotal press epair 
thermo          1000  

dump            dmpall	all dcd	1000 OutputFiles/216.dcd   
run 		10000







