units		real
atom_style	full
log             outputFiles/thermo.log

read_data	inputFiles/bond.lmpsys
    
pair_style	lj/cut 10.0 
bond_style   	harmonic
special_bonds   charmm

pair_coeff   	* * 0.15 3.5	# A
bond_coeff   	1 100.0 3.5	# A-A

velocity 	all create 300.0 7654321

minimize 	1.0e-4 1.0e-6 1000 10000

fix 		fxnvt all nvt temp 300.0 300.0 100.0

thermo_style    multi
thermo          1000  

dump            dmpdcd	all dcd	100 outputFiles/bond.dcd   

run 		10000
