units		real
atom_style	full
log             outputFiles/thermo.log

read_data	inputFiles/water.lmpsys
    
#pair_style	lj/cut/coul/long 10.0 10.0 
pair_style	lj/cut/coul/dsf 0.25 10.0 10.0 
bond_style   	harmonic
angle_style  	harmonic
#kspace_style 	pppm 0.0001
pair_modify  	mix arithmetic 

bond_coeff   	1 1000.0 1.0 
angle_coeff  	1 1000.0 109.47
pair_coeff   	1 1 0.0 2.058	        # h
pair_coeff   	2 2 0.15535 3.166  	# o 

minimize 	1.0e-4 1.0e-6 1000 10000

fix 		fxshk all shake 0.0001 20 0 b 1 a 1
fix 		fxnvt all nvt temp 300.0 300.0 100.0

thermo_style    multi
thermo          1000  

run 		10000
dump            dmpall	all dcd	100 outputFiles/water.dcd   
run 		10000







